60
867
4
6
10
28
86
0 1
0 5
0 8
0 9
0 10
0 12
0 16
0 17
0 22
0 23
0 27
0 28
0 30
0 32
0 35
0 36
0 39
0 40
0 41
0 43
0 49
0 51
0 53
0 54
0 55
0 59
1 3
1 6
1 7
1 8
1 9
1 11
1 13
1 16
1 17
1 18
1 23
1 24
1 26
1 28
1 29
1 30
1 31
1 32
1 37
1 39
1 42
1 44
1 45
1 46
1 47
1 49
1 50
1 55
1 56
1 57
1 58
1 59
2 5
2 9
2 11
2 13
2 15
2 16
2 17
2 23
2 26
2 29
2 31
2 33
2 34
2 35
2 40
2 41
2 42
2 48
2 50
2 52
2 53
2 55
2 58
2 59
3 4
3 5
3 7
3 8
3 9
3 10
3 12
3 14
3 15
3 16
3 21
3 24
3 26
3 30
3 32
3 35
3 36
3 37
3 38
3 39
3 40
3 41
3 44
3 45
3 46
3 47
3 50
3 54
3 57
3 58
4 5
4 7
4 8
4 12
4 13
4 17
4 22
4 23
4 24
4 26
4 27
4 28
4 29
4 31
4 35
4 36
4 38
4 39
4 43
4 47
4 49
4 53
4 54
4 57
5 6
5 7
5 8
5 9
5 10
5 13
5 15
5 17
5 18
5 20
5 21
5 24
5 26
5 28
5 29
5 31
5 32
5 37
5 38
5 40
5 41
5 43
5 46
5 47
5 48
5 50
5 52
5 53
5 54
5 57
5 59
6 8
6 9
6 11
6 13
6 17
6 20
6 24
6 28
6 29
6 30
6 31
6 34
6 35
6 36
6 37
6 39
6 40
6 41
6 42
6 47
6 48
6 49
6 50
6 53
6 54
6 58
7 9
7 11
7 12
7 14
7 16
7 17
7 19
7 21
7 28
7 29
7 30
7 34
7 37
7 38
7 39
7 40
7 41
7 43
7 45
7 47
7 48
7 50
7 52
7 54
7 56
7 57
7 58
7 59
8 9
8 10
8 15
8 16
8 18
8 19
8 20
8 22
8 26
8 29
8 31
8 32
8 37
8 38
8 39
8 41
8 42
8 44
8 46
8 47
8 49
8 50
8 52
8 53
8 54
8 55
8 56
9 11
9 13
9 14
9 15
9 16
9 18
9 19
9 20
9 22
9 23
9 24
9 25
9 26
9 29
9 30
9 31
9 35
9 36
9 41
9 42
9 44
9 45
9 49
9 56
9 57
9 59
10 13
10 14
10 15
10 17
10 18
10 19
10 21
10 22
10 24
10 26
10 30
10 33
10 35
10 38
10 40
10 41
10 43
10 45
10 46
10 47
10 49
10 51
10 52
10 55
10 57
11 14
11 15
11 16
11 20
11 22
11 25
11 28
11 29
11 30
11 31
11 34
11 37
11 39
11 41
11 42
11 46
11 47
11 49
11 50
11 51
11 52
11 55
11 56
12 14
12 15
12 16
12 18
12 20
12 22
12 26
12 33
12 34
12 36
12 39
12 41
12 42
12 43
12 46
12 47
12 49
12 50
12 51
12 52
12 55
12 57
12 59
13 15
13 17
13 23
13 28
13 29
13 30
13 33
13 35
13 37
13 39
13 40
13 42
13 47
13 48
13 51
13 53
13 55
13 56
13 58
13 59
14 15
14 17
14 23
14 25
14 30
14 31
14 32
14 33
14 34
14 37
14 39
14 40
14 41
14 43
14 44
14 45
14 47
14 48
14 50
14 52
14 55
14 57
15 17
15 20
15 22
15 25
15 28
15 29
15 31
15 34
15 35
15 40
15 41
15 42
15 43
15 45
15 48
15 49
15 53
15 58
15 59
16 19
16 21
16 22
16 23
16 25
16 26
16 28
16 35
16 37
16 38
16 42
16 44
16 45
16 46
16 47
16 49
16 50
16 53
16 56
16 59
17 18
17 21
17 23
17 25
17 26
17 29
17 31
17 35
17 36
17 39
17 44
17 45
17 47
17 49
17 50
17 51
17 52
17 54
17 55
17 58
17 59
18 19
18 21
18 24
18 27
18 28
18 30
18 32
18 33
18 38
18 40
18 41
18 43
18 44
18 45
18 47
18 49
18 50
18 52
18 53
18 54
18 56
18 57
18 58
19 21
19 22
19 23
19 24
19 25
19 27
19 29
19 34
19 35
19 36
19 38
19 39
19 42
19 50
19 52
19 54
19 56
19 57
19 58
19 59
20 22
20 23
20 25
20 27
20 29
20 30
20 32
20 35
20 38
20 41
20 42
20 43
20 45
20 47
20 49
20 52
20 55
20 56
20 58
20 59
21 23
21 24
21 26
21 28
21 29
21 31
21 32
21 35
21 37
21 38
21 39
21 41
21 42
21 43
21 45
21 46
21 47
21 51
21 52
21 53
22 23
22 24
22 29
22 30
22 31
22 34
22 37
22 38
22 39
22 40
22 41
22 42
22 49
22 54
22 55
22 56
22 59
23 32
23 33
23 34
23 35
23 36
23 37
23 39
23 42
23 43
23 45
23 46
23 50
23 52
23 53
23 54
23 55
23 57
23 58
24 27
24 28
24 29
24 30
24 31
24 32
24 33
24 34
24 36
24 38
24 39
24 40
24 41
24 42
24 45
24 48
24 55
24 56
25 27
25 32
25 33
25 34
25 35
25 36
25 39
25 41
25 42
25 43
25 44
25 53
25 55
25 56
25 57
26 27
26 29
26 32
26 37
26 38
26 39
26 45
26 46
26 47
26 49
26 50
26 51
26 52
26 54
26 55
26 58
27 29
27 32
27 34
27 36
27 37
27 39
27 42
27 43
27 45
27 48
27 50
27 51
27 52
27 53
27 54
27 55
27 58
27 59
28 31
28 32
28 33
28 34
28 36
28 37
28 38
28 39
28 40
28 43
28 45
28 48
28 50
28 51
28 53
28 54
28 55
28 58
28 59
29 34
29 35
29 36
29 38
29 39
29 44
29 45
29 47
29 48
29 53
29 55
29 57
29 58
30 34
30 35
30 36
30 38
30 41
30 44
30 45
30 51
30 52
30 55
30 58
31 32
31 36
31 38
31 39
31 42
31 44
31 45
31 49
31 50
31 51
31 52
31 55
31 56
31 57
32 34
32 35
32 36
32 37
32 38
32 39
32 44
32 48
32 49
32 52
32 53
32 54
32 58
33 34
33 35
33 36
33 37
33 40
33 41
33 46
33 47
33 48
33 50
33 52
33 54
33 56
33 57
33 59
34 35
34 38
34 43
34 44
34 45
34 47
34 49
34 50
34 51
34 53
34 54
34 57
34 58
35 36
35 43
35 46
35 48
35 50
35 51
35 53
35 54
35 55
35 56
36 37
36 38
36 40
36 47
36 48
36 49
36 50
36 51
36 53
36 54
36 57
36 58
37 40
37 42
37 45
37 46
37 47
37 48
37 49
37 50
37 51
37 52
37 54
37 56
37 57
38 39
38 40
38 41
38 44
38 45
38 47
38 48
38 51
38 56
39 40
39 41
39 42
39 43
39 44
39 45
39 48
39 50
39 54
40 43
40 44
40 47
40 49
40 51
40 57
40 58
40 59
41 43
41 47
41 48
41 49
41 50
41 52
41 53
41 54
41 57
42 45
42 46
42 49
42 56
42 57
42 58
43 44
43 46
43 47
43 50
43 53
43 55
43 58
44 48
44 49
44 53
44 56
44 59
45 46
45 47
45 51
45 52
45 54
45 58
45 59
46 48
46 50
46 51
46 52
46 55
46 59
47 49
47 50
47 51
47 52
47 57
47 58
47 59
48 49
48 50
48 51
48 52
48 54
48 57
48 59
49 52
49 59
50 55
50 56
50 59
51 52
51 56
51 57
51 58
52 56
52 57
53 56
53 59
54 55
54 56
55 57
55 58
56 57
56 58
56 59
57 59
58 59
59 36 27 1 11 47 50 41 10 12 6 32 54 18 14 7 25 43
23 15 30 34 28 22 57 35 58 17 26 52 3 33 39 8 29 16
48 40 38 51 53 45 24 2 0 56 20 5 46 9 55 4 42 31
13 44 19 21 37 49
